Maximize
  - 4.5537172619344 edge_0_2_0_0 - 4.069089102700801 edge_0_3_0_0
   - 3.6728171719286 edge_0_5_0_0 - 4.5017727686943 edge_0_7_0_0
   - 4.2598833663333 edge_0_9_0_0 - 2.764388306588 edge_0_10_0_0
   - 4.26551 edge_0_11_0_0 - 3.46465 edge_0_20_0_0
   + 0.4584817111532577 edge_2_3_0_0 + 0.3180703637320613 edge_2_5_0_0
   - 0.4789858755024887 edge_2_7_0_0 - 0.2381070675360255 edge_2_8_0_0
   - 0.7868289638669734 edge_2_9_0_0 - 1.006043513345338 edge_2_10_0_0
   - 0.8660984206235 edge_2_11_0_0 + 1.103935964446551 edge_3_2_0_0
   + 0.9960115534028334 edge_3_5_0_0 + 0.4681801421868658 edge_3_7_0_0
   + 0.1865043760358038 edge_3_8_0_0 - 0.848961075623101 edge_3_9_0_0
   + 0.1890355367088173 edge_3_10_0_0 - 0.53590955488632 edge_3_11_0_0
   - 1.175782685690778 edge_3_12_0_0 - 0.8812089611791201 edge_3_13_0_0
   + 0.075740174957286 edge_3_15_0_0 - 0.8216422077782726 edge_3_16_0_0
   + 0.5759232199853518 edge_3_17_0_0 + 0.4873477747198688 edge_3_18_0_0
   + 0.17281158097896 edge_3_20_0_0 - 1.905261547817364 edge_3_21_0_0
   - 0.2496436661266188 edge_4_2_0_0 + 0.1141412856951195 edge_4_3_0_0
   + 0.2969804760098816 edge_4_7_0_0 - 0.2341077279034348 edge_4_8_0_0
   - 0.6091991196477113 edge_4_9_0_0 - 0.8797987572565545 edge_4_10_0_0
   + 1.202299836694913 edge_5_2_0_0 + 1.880039705753112 edge_5_3_0_0
   + 3.533750251061011 edge_5_4_0_0 + 0.3946960653577156 edge_5_6_0_0
   + 2.765486709199494 edge_5_7_0_0 + 1.885978835636178 edge_5_8_0_0
   + 1.375008699425786 edge_5_9_0_0 + 0.7204633976673466 edge_5_10_0_0
   + 0.70719545545908 edge_5_11_0_0 - 0.0787345995439677 edge_5_12_0_0
   + 0.41315668186911 edge_5_13_0_0 + 0.3743201435851875 edge_5_15_0_0
   - 0.2477416977195459 edge_5_16_0_0 + 0.9394800177761492 edge_5_17_0_0
   - 0.6676612962091161 edge_5_18_0_0 - 1.241582516373726 edge_5_19_0_0
   - 1.1929890813977 edge_5_20_0_0 - 1.281858628410096 edge_5_21_0_0
   + 0.1776867622750192 edge_6_8_0_0 - 0.0442991908249621 edge_7_2_0_0
   + 0.0788452393869429 edge_7_3_0_0 + 0.7788963106910148 edge_7_4_0_0
   + 0.287414186514036 edge_7_5_0_0 + 3.341641717550406 edge_7_6_0_0
   + 2.374757495918794 edge_7_8_0_0 + 1.885154811880125 edge_7_9_0_0
   + 0.6004271542050342 edge_7_10_0_0 + 0.27598290865905 edge_7_11_0_0
   - 0.4680536145886827 edge_7_12_0_0 - 0.23451372550356 edge_7_13_0_0
   + 0.9280079353606333 edge_7_15_0_0 - 0.7140980937889913 edge_7_16_0_0
   + 1.05895522532052 edge_7_18_0_0 + 0.3689290673647362 edge_7_19_0_0
   - 1.2242663625408 edge_7_20_0_0 - 2.058379200915355 edge_7_21_0_0
   - 0.4295734227636454 edge_8_9_0_0 - 1.149725647869683 edge_9_2_0_0
   - 0.7791488230880421 edge_9_3_0_0 - 0.7530964254900059 edge_9_5_0_0
   + 1.080738703369735 edge_9_6_0_0 + 0.4381236090865314 edge_9_7_0_0
   - 0.2137297655201596 edge_9_8_0_0 + 0.9554260993021845 edge_9_10_0_0
   + 0.63387522870957 edge_9_11_0_0 + 0.4382043719308161 edge_9_12_0_0
   - 0.025356389087925 edge_9_13_0_0 + 0.2547454251491258 edge_9_15_0_0
   - 0.6465853501040359 edge_9_16_0_0 + 0.6221082202912144 edge_9_17_0_0
   + 0.2013581209256454 edge_9_18_0_0 - 0.4623799655147186 edge_9_19_0_0
   - 1.864557750754107 edge_9_21_0_0 + 0.7985236706045754 edge_10_2_0_0
   + 0.2231376558488832 edge_10_3_0_0 + 1.24647376760406 edge_10_5_0_0
   + 0.1353352649777376 edge_10_6_0_0 + 0.6876759625870837 edge_10_7_0_0
   + 0.5786883350333883 edge_10_8_0_0 + 2.708619872151976 edge_10_9_0_0
   + 2.7804482386542 edge_10_11_0_0 + 1.169027845475296 edge_10_12_0_0
   + 1.5519434352515 edge_10_13_0_0 + 0.9631630608958185 edge_10_15_0_0
   + 0.9687035328892829 edge_10_16_0_0 + 2.638679553944673 edge_10_17_0_0
   + 1.930948047275009 edge_10_18_0_0 + 0.2323065696334538 edge_10_19_0_0
   + 1.4607638209429 edge_10_20_0_0 + 0.1328223983119785 edge_10_21_0_0
   - 0.90658466040928 edge_11_2_0_0 - 0.9639265351255201 edge_11_3_0_0
   - 0.9577282625486701 edge_11_5_0_0 + 0.056452406316986 edge_11_6_0_0
   - 0.74659329031494 edge_11_7_0_0 - 0.88271175986967 edge_11_8_0_0
   - 0.0067239954088551 edge_11_9_0_0 + 0.22434405102065 edge_11_10_0_0
   + 0.5793108011457599 edge_11_12_0_0 + 1.28038 edge_11_13_0_0
   + 1.2515212709604 edge_11_15_0_0 + 0.37156433724528 edge_11_16_0_0
   + 0.5847412282634999 edge_11_17_0_0 + 1.687580268851 edge_11_18_0_0
   + 1.4010349285262 edge_11_19_0_0 - 0.481974 edge_11_20_0_0
   - 1.093669671899 edge_11_21_0_0 - 0.8330909329413601 edge_12_11_0_0
   - 1.2066894876544 edge_13_2_0_0 - 1.2426521839092 edge_13_3_0_0
   - 1.0739791730354 edge_13_5_0_0 - 0.25451218680121 edge_13_6_0_0
   - 0.64022229184825 edge_13_10_0_0 - 0.0950253 edge_13_11_0_0
   + 1.6337671003644 edge_13_12_0_0 + 1.8551161390641 edge_13_15_0_0
   + 2.2960358058 edge_13_16_0_0 + 1.3507654831258 edge_13_17_0_0
   + 2.0658711420112 edge_13_18_0_0 + 1.984293675848 edge_13_19_0_0
   - 0.0259737 edge_13_20_0_0 + 0.4925358522392 edge_13_21_0_0
   - 0.23929955923401 edge_15_13_0_0 - 0.4033424574814922 edge_15_16_0_0
   - 1.530656028369951 edge_16_5_0_0 + 0.8149694395348805 edge_16_12_0_0
   + 0.077870335577472 edge_16_13_0_0 + 0.2345081697302745 edge_16_15_0_0
   + 1.170522898658158 edge_16_17_0_0 + 2.441845752191767 edge_16_18_0_0
   + 2.382670041592997 edge_16_19_0_0 - 0.17468970342432 edge_16_20_0_0
   - 0.5338410384951604 edge_16_21_0_0 - 0.0115687551829736 edge_18_17_0_0
   - 0.281842328873918 edge_18_19_0_0 - 0.38136589124688 edge_18_20_0_0
   - 0.2974304032283912 edge_19_18_0_0 + 1.0007363776718 edge_19_20_0_0
   + 0.8007098554412314 edge_19_21_0_0 - 0.50800643715994 edge_20_2_0_0
   - 1.5874919370972 edge_20_3_0_0 - 0.15372588163098 edge_20_5_0_0
   - 0.89858863110732 edge_20_7_0_0 - 1.3655583112236 edge_20_8_0_0
   + 0.21320965887561 edge_20_9_0_0 - 0.8546913846401499 edge_20_10_0_0
   - 0.458122 edge_20_11_0_0 + 0.652653091057 edge_20_12_0_0
   - 0.257615 edge_20_13_0_0 - 0.13957499729613 edge_20_15_0_0
   + 0.23333423255232 edge_20_16_0_0 + 0.78280098229354 edge_20_17_0_0
   + 0.46615663091449 edge_20_18_0_0 + 1.5847250858802 edge_20_19_0_0
   + 2.613059216082 edge_20_21_0_0 - 0.120625500349779 edge_21_19_0_0
Subject To
 one_parent_1: = 1
 consume_one_flow_unit_1: = 1
 one_parent_2: edge_0_2_0_0 + edge_3_2_0_0 + edge_4_2_0_0 + edge_5_2_0_0
   + edge_7_2_0_0 + edge_9_2_0_0 + edge_10_2_0_0 + edge_11_2_0_0
   + edge_13_2_0_0 + edge_20_2_0_0 = 1
 consume_one_flow_unit_2: flow_0_2_0_0 - flow_2_3_0_0 - flow_2_5_0_0
   - flow_2_7_0_0 - flow_2_8_0_0 - flow_2_9_0_0 - flow_2_10_0_0
   - flow_2_11_0_0 + flow_3_2_0_0 + flow_4_2_0_0 + flow_5_2_0_0
   + flow_7_2_0_0 + flow_9_2_0_0 + flow_10_2_0_0 + flow_11_2_0_0
   + flow_13_2_0_0 + flow_20_2_0_0 = 1
 one_parent_3: edge_0_3_0_0 + edge_2_3_0_0 + edge_4_3_0_0 + edge_5_3_0_0
   + edge_7_3_0_0 + edge_9_3_0_0 + edge_10_3_0_0 + edge_11_3_0_0
   + edge_13_3_0_0 + edge_20_3_0_0 = 1
 consume_one_flow_unit_3: flow_0_3_0_0 + flow_2_3_0_0 - flow_3_2_0_0
   - flow_3_5_0_0 - flow_3_7_0_0 - flow_3_8_0_0 - flow_3_9_0_0
   - flow_3_10_0_0 - flow_3_11_0_0 - flow_3_12_0_0 - flow_3_13_0_0
   - flow_3_15_0_0 - flow_3_16_0_0 - flow_3_17_0_0 - flow_3_18_0_0
   - flow_3_20_0_0 - flow_3_21_0_0 + flow_4_3_0_0 + flow_5_3_0_0
   + flow_7_3_0_0 + flow_9_3_0_0 + flow_10_3_0_0 + flow_11_3_0_0
   + flow_13_3_0_0 + flow_20_3_0_0 = 1
 one_parent_4: edge_5_4_0_0 + edge_7_4_0_0 = 1
 consume_one_flow_unit_4: - flow_4_2_0_0 - flow_4_3_0_0 - flow_4_7_0_0
   - flow_4_8_0_0 - flow_4_9_0_0 - flow_4_10_0_0 + flow_5_4_0_0
   + flow_7_4_0_0 = 1
 one_parent_5: edge_0_5_0_0 + edge_2_5_0_0 + edge_3_5_0_0 + edge_7_5_0_0
   + edge_9_5_0_0 + edge_10_5_0_0 + edge_11_5_0_0 + edge_13_5_0_0
   + edge_16_5_0_0 + edge_20_5_0_0 = 1
 consume_one_flow_unit_5: flow_0_5_0_0 + flow_2_5_0_0 + flow_3_5_0_0
   - flow_5_2_0_0 - flow_5_3_0_0 - flow_5_4_0_0 - flow_5_6_0_0
   - flow_5_7_0_0 - flow_5_8_0_0 - flow_5_9_0_0 - flow_5_10_0_0
   - flow_5_11_0_0 - flow_5_12_0_0 - flow_5_13_0_0 - flow_5_15_0_0
   - flow_5_16_0_0 - flow_5_17_0_0 - flow_5_18_0_0 - flow_5_19_0_0
   - flow_5_20_0_0 - flow_5_21_0_0 + flow_7_5_0_0 + flow_9_5_0_0
   + flow_10_5_0_0 + flow_11_5_0_0 + flow_13_5_0_0 + flow_16_5_0_0
   + flow_20_5_0_0 = 1
 one_parent_6: edge_5_6_0_0 + edge_7_6_0_0 + edge_9_6_0_0 + edge_10_6_0_0
   + edge_11_6_0_0 + edge_13_6_0_0 = 1
 consume_one_flow_unit_6: flow_5_6_0_0 - flow_6_8_0_0 + flow_7_6_0_0
   + flow_9_6_0_0 + flow_10_6_0_0 + flow_11_6_0_0 + flow_13_6_0_0 = 1
 one_parent_7: edge_0_7_0_0 + edge_2_7_0_0 + edge_3_7_0_0 + edge_4_7_0_0
   + edge_5_7_0_0 + edge_9_7_0_0 + edge_10_7_0_0 + edge_11_7_0_0
   + edge_20_7_0_0 = 1
 consume_one_flow_unit_7: flow_0_7_0_0 + flow_2_7_0_0 + flow_3_7_0_0
   + flow_4_7_0_0 + flow_5_7_0_0 - flow_7_2_0_0 - flow_7_3_0_0
   - flow_7_4_0_0 - flow_7_5_0_0 - flow_7_6_0_0 - flow_7_8_0_0
   - flow_7_9_0_0 - flow_7_10_0_0 - flow_7_11_0_0 - flow_7_12_0_0
   - flow_7_13_0_0 - flow_7_15_0_0 - flow_7_16_0_0 - flow_7_18_0_0
   - flow_7_19_0_0 - flow_7_20_0_0 - flow_7_21_0_0 + flow_9_7_0_0
   + flow_10_7_0_0 + flow_11_7_0_0 + flow_20_7_0_0 = 1
 one_parent_8: edge_2_8_0_0 + edge_3_8_0_0 + edge_4_8_0_0 + edge_5_8_0_0
   + edge_6_8_0_0 + edge_7_8_0_0 + edge_9_8_0_0 + edge_10_8_0_0
   + edge_11_8_0_0 + edge_20_8_0_0 = 1
 consume_one_flow_unit_8: flow_2_8_0_0 + flow_3_8_0_0 + flow_4_8_0_0
   + flow_5_8_0_0 + flow_6_8_0_0 + flow_7_8_0_0 - flow_8_9_0_0
   + flow_9_8_0_0 + flow_10_8_0_0 + flow_11_8_0_0 + flow_20_8_0_0 = 1
 one_parent_9: edge_0_9_0_0 + edge_2_9_0_0 + edge_3_9_0_0 + edge_4_9_0_0
   + edge_5_9_0_0 + edge_7_9_0_0 + edge_8_9_0_0 + edge_10_9_0_0
   + edge_11_9_0_0 + edge_20_9_0_0 = 1
 consume_one_flow_unit_9: flow_0_9_0_0 + flow_2_9_0_0 + flow_3_9_0_0
   + flow_4_9_0_0 + flow_5_9_0_0 + flow_7_9_0_0 + flow_8_9_0_0
   - flow_9_2_0_0 - flow_9_3_0_0 - flow_9_5_0_0 - flow_9_6_0_0
   - flow_9_7_0_0 - flow_9_8_0_0 - flow_9_10_0_0 - flow_9_11_0_0
   - flow_9_12_0_0 - flow_9_13_0_0 - flow_9_15_0_0 - flow_9_16_0_0
   - flow_9_17_0_0 - flow_9_18_0_0 - flow_9_19_0_0 - flow_9_21_0_0
   + flow_10_9_0_0 + flow_11_9_0_0 + flow_20_9_0_0 = 1
 one_parent_10: edge_0_10_0_0 + edge_2_10_0_0 + edge_3_10_0_0
   + edge_4_10_0_0 + edge_5_10_0_0 + edge_7_10_0_0 + edge_9_10_0_0
   + edge_11_10_0_0 + edge_13_10_0_0 + edge_20_10_0_0 = 1
 consume_one_flow_unit_10: flow_0_10_0_0 + flow_2_10_0_0 + flow_3_10_0_0
   + flow_4_10_0_0 + flow_5_10_0_0 + flow_7_10_0_0 + flow_9_10_0_0
   - flow_10_2_0_0 - flow_10_3_0_0 - flow_10_5_0_0 - flow_10_6_0_0
   - flow_10_7_0_0 - flow_10_8_0_0 - flow_10_9_0_0 - flow_10_11_0_0
   - flow_10_12_0_0 - flow_10_13_0_0 - flow_10_15_0_0 - flow_10_16_0_0
   - flow_10_17_0_0 - flow_10_18_0_0 - flow_10_19_0_0 - flow_10_20_0_0
   - flow_10_21_0_0 + flow_11_10_0_0 + flow_13_10_0_0 + flow_20_10_0_0 = 1
 one_parent_11: edge_0_11_0_0 + edge_2_11_0_0 + edge_3_11_0_0
   + edge_5_11_0_0 + edge_7_11_0_0 + edge_9_11_0_0 + edge_10_11_0_0
   + edge_12_11_0_0 + edge_13_11_0_0 + edge_20_11_0_0 = 1
 consume_one_flow_unit_11: flow_0_11_0_0 + flow_2_11_0_0 + flow_3_11_0_0
   + flow_5_11_0_0 + flow_7_11_0_0 + flow_9_11_0_0 + flow_10_11_0_0
   - flow_11_2_0_0 - flow_11_3_0_0 - flow_11_5_0_0 - flow_11_6_0_0
   - flow_11_7_0_0 - flow_11_8_0_0 - flow_11_9_0_0 - flow_11_10_0_0
   - flow_11_12_0_0 - flow_11_13_0_0 - flow_11_15_0_0 - flow_11_16_0_0
   - flow_11_17_0_0 - flow_11_18_0_0 - flow_11_19_0_0 - flow_11_20_0_0
   - flow_11_21_0_0 + flow_12_11_0_0 + flow_13_11_0_0 + flow_20_11_0_0 = 1
 one_parent_12: edge_3_12_0_0 + edge_5_12_0_0 + edge_7_12_0_0
   + edge_9_12_0_0 + edge_10_12_0_0 + edge_11_12_0_0 + edge_13_12_0_0
   + edge_16_12_0_0 + edge_20_12_0_0 = 1
 consume_one_flow_unit_12: flow_3_12_0_0 + flow_5_12_0_0 + flow_7_12_0_0
   + flow_9_12_0_0 + flow_10_12_0_0 + flow_11_12_0_0 - flow_12_11_0_0
   + flow_13_12_0_0 + flow_16_12_0_0 + flow_20_12_0_0 = 1
 one_parent_13: edge_3_13_0_0 + edge_5_13_0_0 + edge_7_13_0_0
   + edge_9_13_0_0 + edge_10_13_0_0 + edge_11_13_0_0 + edge_15_13_0_0
   + edge_16_13_0_0 + edge_20_13_0_0 = 1
 consume_one_flow_unit_13: flow_3_13_0_0 + flow_5_13_0_0 + flow_7_13_0_0
   + flow_9_13_0_0 + flow_10_13_0_0 + flow_11_13_0_0 - flow_13_2_0_0
   - flow_13_3_0_0 - flow_13_5_0_0 - flow_13_6_0_0 - flow_13_10_0_0
   - flow_13_11_0_0 - flow_13_12_0_0 - flow_13_15_0_0 - flow_13_16_0_0
   - flow_13_17_0_0 - flow_13_18_0_0 - flow_13_19_0_0 - flow_13_20_0_0
   - flow_13_21_0_0 + flow_15_13_0_0 + flow_16_13_0_0 + flow_20_13_0_0 = 1
 one_parent_14: = 1
 consume_one_flow_unit_14: = 1
 one_parent_15: edge_3_15_0_0 + edge_5_15_0_0 + edge_7_15_0_0
   + edge_9_15_0_0 + edge_10_15_0_0 + edge_11_15_0_0 + edge_13_15_0_0
   + edge_16_15_0_0 + edge_20_15_0_0 = 1
 consume_one_flow_unit_15: flow_3_15_0_0 + flow_5_15_0_0 + flow_7_15_0_0
   + flow_9_15_0_0 + flow_10_15_0_0 + flow_11_15_0_0 + flow_13_15_0_0
   - flow_15_13_0_0 - flow_15_16_0_0 + flow_16_15_0_0 + flow_20_15_0_0 = 1
 one_parent_16: edge_3_16_0_0 + edge_5_16_0_0 + edge_7_16_0_0
   + edge_9_16_0_0 + edge_10_16_0_0 + edge_11_16_0_0 + edge_13_16_0_0
   + edge_15_16_0_0 + edge_20_16_0_0 = 1
 consume_one_flow_unit_16: flow_3_16_0_0 + flow_5_16_0_0 + flow_7_16_0_0
   + flow_9_16_0_0 + flow_10_16_0_0 + flow_11_16_0_0 + flow_13_16_0_0
   + flow_15_16_0_0 - flow_16_5_0_0 - flow_16_12_0_0 - flow_16_13_0_0
   - flow_16_15_0_0 - flow_16_17_0_0 - flow_16_18_0_0 - flow_16_19_0_0
   - flow_16_20_0_0 - flow_16_21_0_0 + flow_20_16_0_0 = 1
 one_parent_17: edge_3_17_0_0 + edge_5_17_0_0 + edge_9_17_0_0
   + edge_10_17_0_0 + edge_11_17_0_0 + edge_13_17_0_0 + edge_16_17_0_0
   + edge_18_17_0_0 + edge_20_17_0_0 = 1
 consume_one_flow_unit_17: flow_3_17_0_0 + flow_5_17_0_0 + flow_9_17_0_0
   + flow_10_17_0_0 + flow_11_17_0_0 + flow_13_17_0_0 + flow_16_17_0_0
   + flow_18_17_0_0 + flow_20_17_0_0 = 1
 one_parent_18: edge_3_18_0_0 + edge_5_18_0_0 + edge_7_18_0_0
   + edge_9_18_0_0 + edge_10_18_0_0 + edge_11_18_0_0 + edge_13_18_0_0
   + edge_16_18_0_0 + edge_19_18_0_0 + edge_20_18_0_0 = 1
 consume_one_flow_unit_18: flow_3_18_0_0 + flow_5_18_0_0 + flow_7_18_0_0
   + flow_9_18_0_0 + flow_10_18_0_0 + flow_11_18_0_0 + flow_13_18_0_0
   + flow_16_18_0_0 - flow_18_17_0_0 - flow_18_19_0_0 - flow_18_20_0_0
   + flow_19_18_0_0 + flow_20_18_0_0 = 1
 one_parent_19: edge_5_19_0_0 + edge_7_19_0_0 + edge_9_19_0_0
   + edge_10_19_0_0 + edge_11_19_0_0 + edge_13_19_0_0 + edge_16_19_0_0
   + edge_18_19_0_0 + edge_20_19_0_0 + edge_21_19_0_0 = 1
 consume_one_flow_unit_19: flow_5_19_0_0 + flow_7_19_0_0 + flow_9_19_0_0
   + flow_10_19_0_0 + flow_11_19_0_0 + flow_13_19_0_0 + flow_16_19_0_0
   + flow_18_19_0_0 - flow_19_18_0_0 - flow_19_20_0_0 - flow_19_21_0_0
   + flow_20_19_0_0 + flow_21_19_0_0 = 1
 one_parent_20: edge_0_20_0_0 + edge_3_20_0_0 + edge_5_20_0_0
   + edge_7_20_0_0 + edge_10_20_0_0 + edge_11_20_0_0 + edge_13_20_0_0
   + edge_16_20_0_0 + edge_18_20_0_0 + edge_19_20_0_0 = 1
 consume_one_flow_unit_20: flow_0_20_0_0 + flow_3_20_0_0 + flow_5_20_0_0
   + flow_7_20_0_0 + flow_10_20_0_0 + flow_11_20_0_0 + flow_13_20_0_0
   + flow_16_20_0_0 + flow_18_20_0_0 + flow_19_20_0_0 - flow_20_2_0_0
   - flow_20_3_0_0 - flow_20_5_0_0 - flow_20_7_0_0 - flow_20_8_0_0
   - flow_20_9_0_0 - flow_20_10_0_0 - flow_20_11_0_0 - flow_20_12_0_0
   - flow_20_13_0_0 - flow_20_15_0_0 - flow_20_16_0_0 - flow_20_17_0_0
   - flow_20_18_0_0 - flow_20_19_0_0 - flow_20_21_0_0 = 1
 one_parent_21: edge_3_21_0_0 + edge_5_21_0_0 + edge_7_21_0_0
   + edge_9_21_0_0 + edge_10_21_0_0 + edge_11_21_0_0 + edge_13_21_0_0
   + edge_16_21_0_0 + edge_19_21_0_0 + edge_20_21_0_0 = 1
 consume_one_flow_unit_21: flow_3_21_0_0 + flow_5_21_0_0 + flow_7_21_0_0
   + flow_9_21_0_0 + flow_10_21_0_0 + flow_11_21_0_0 + flow_13_21_0_0
   + flow_16_21_0_0 + flow_19_21_0_0 + flow_20_21_0_0 - flow_21_19_0_0 = 1
 one_parent_22: = 1
 consume_one_flow_unit_22: = 1
 root_flow: flow_0_2_0_0 + flow_0_3_0_0 + flow_0_5_0_0 + flow_0_7_0_0
   + flow_0_9_0_0 + flow_0_10_0_0 + flow_0_11_0_0 + flow_0_20_0_0 = 22
 inactive_no_flow_0_2_0_0: flow_0_2_0_0 - 1000 edge_0_2_0_0 <= 0
 inactive_no_flow_0_3_0_0: flow_0_3_0_0 - 1000 edge_0_3_0_0 <= 0
 inactive_no_flow_0_5_0_0: flow_0_5_0_0 - 1000 edge_0_5_0_0 <= 0
 inactive_no_flow_0_7_0_0: flow_0_7_0_0 - 1000 edge_0_7_0_0 <= 0
 inactive_no_flow_0_9_0_0: flow_0_9_0_0 - 1000 edge_0_9_0_0 <= 0
 inactive_no_flow_0_10_0_0: flow_0_10_0_0 - 1000 edge_0_10_0_0 <= 0
 inactive_no_flow_0_11_0_0: flow_0_11_0_0 - 1000 edge_0_11_0_0 <= 0
 inactive_no_flow_0_20_0_0: flow_0_20_0_0 - 1000 edge_0_20_0_0 <= 0
 inactive_no_flow_2_3_0_0: flow_2_3_0_0 - 1000 edge_2_3_0_0 <= 0
 inactive_no_flow_2_5_0_0: flow_2_5_0_0 - 1000 edge_2_5_0_0 <= 0
 inactive_no_flow_2_7_0_0: flow_2_7_0_0 - 1000 edge_2_7_0_0 <= 0
 inactive_no_flow_2_8_0_0: flow_2_8_0_0 - 1000 edge_2_8_0_0 <= 0
 inactive_no_flow_2_9_0_0: flow_2_9_0_0 - 1000 edge_2_9_0_0 <= 0
 inactive_no_flow_2_10_0_0: flow_2_10_0_0 - 1000 edge_2_10_0_0 <= 0
 inactive_no_flow_2_11_0_0: flow_2_11_0_0 - 1000 edge_2_11_0_0 <= 0
 inactive_no_flow_3_2_0_0: flow_3_2_0_0 - 1000 edge_3_2_0_0 <= 0
 inactive_no_flow_3_5_0_0: flow_3_5_0_0 - 1000 edge_3_5_0_0 <= 0
 inactive_no_flow_3_7_0_0: flow_3_7_0_0 - 1000 edge_3_7_0_0 <= 0
 inactive_no_flow_3_8_0_0: flow_3_8_0_0 - 1000 edge_3_8_0_0 <= 0
 inactive_no_flow_3_9_0_0: flow_3_9_0_0 - 1000 edge_3_9_0_0 <= 0
 inactive_no_flow_3_10_0_0: flow_3_10_0_0 - 1000 edge_3_10_0_0 <= 0
 inactive_no_flow_3_11_0_0: flow_3_11_0_0 - 1000 edge_3_11_0_0 <= 0
 inactive_no_flow_3_12_0_0: flow_3_12_0_0 - 1000 edge_3_12_0_0 <= 0
 inactive_no_flow_3_13_0_0: flow_3_13_0_0 - 1000 edge_3_13_0_0 <= 0
 inactive_no_flow_3_15_0_0: flow_3_15_0_0 - 1000 edge_3_15_0_0 <= 0
 inactive_no_flow_3_16_0_0: flow_3_16_0_0 - 1000 edge_3_16_0_0 <= 0
 inactive_no_flow_3_17_0_0: flow_3_17_0_0 - 1000 edge_3_17_0_0 <= 0
 inactive_no_flow_3_18_0_0: flow_3_18_0_0 - 1000 edge_3_18_0_0 <= 0
 inactive_no_flow_3_20_0_0: flow_3_20_0_0 - 1000 edge_3_20_0_0 <= 0
 inactive_no_flow_3_21_0_0: flow_3_21_0_0 - 1000 edge_3_21_0_0 <= 0
 inactive_no_flow_4_2_0_0: flow_4_2_0_0 - 1000 edge_4_2_0_0 <= 0
 inactive_no_flow_4_3_0_0: flow_4_3_0_0 - 1000 edge_4_3_0_0 <= 0
 inactive_no_flow_4_7_0_0: flow_4_7_0_0 - 1000 edge_4_7_0_0 <= 0
 inactive_no_flow_4_8_0_0: flow_4_8_0_0 - 1000 edge_4_8_0_0 <= 0
 inactive_no_flow_4_9_0_0: flow_4_9_0_0 - 1000 edge_4_9_0_0 <= 0
 inactive_no_flow_4_10_0_0: flow_4_10_0_0 - 1000 edge_4_10_0_0 <= 0
 inactive_no_flow_5_2_0_0: flow_5_2_0_0 - 1000 edge_5_2_0_0 <= 0
 inactive_no_flow_5_3_0_0: flow_5_3_0_0 - 1000 edge_5_3_0_0 <= 0
 inactive_no_flow_5_4_0_0: flow_5_4_0_0 - 1000 edge_5_4_0_0 <= 0
 inactive_no_flow_5_6_0_0: flow_5_6_0_0 - 1000 edge_5_6_0_0 <= 0
 inactive_no_flow_5_7_0_0: flow_5_7_0_0 - 1000 edge_5_7_0_0 <= 0
 inactive_no_flow_5_8_0_0: flow_5_8_0_0 - 1000 edge_5_8_0_0 <= 0
 inactive_no_flow_5_9_0_0: flow_5_9_0_0 - 1000 edge_5_9_0_0 <= 0
 inactive_no_flow_5_10_0_0: flow_5_10_0_0 - 1000 edge_5_10_0_0 <= 0
 inactive_no_flow_5_11_0_0: flow_5_11_0_0 - 1000 edge_5_11_0_0 <= 0
 inactive_no_flow_5_12_0_0: flow_5_12_0_0 - 1000 edge_5_12_0_0 <= 0
 inactive_no_flow_5_13_0_0: flow_5_13_0_0 - 1000 edge_5_13_0_0 <= 0
 inactive_no_flow_5_15_0_0: flow_5_15_0_0 - 1000 edge_5_15_0_0 <= 0
 inactive_no_flow_5_16_0_0: flow_5_16_0_0 - 1000 edge_5_16_0_0 <= 0
 inactive_no_flow_5_17_0_0: flow_5_17_0_0 - 1000 edge_5_17_0_0 <= 0
 inactive_no_flow_5_18_0_0: flow_5_18_0_0 - 1000 edge_5_18_0_0 <= 0
 inactive_no_flow_5_19_0_0: flow_5_19_0_0 - 1000 edge_5_19_0_0 <= 0
 inactive_no_flow_5_20_0_0: flow_5_20_0_0 - 1000 edge_5_20_0_0 <= 0
 inactive_no_flow_5_21_0_0: flow_5_21_0_0 - 1000 edge_5_21_0_0 <= 0
 inactive_no_flow_6_8_0_0: flow_6_8_0_0 - 1000 edge_6_8_0_0 <= 0
 inactive_no_flow_7_2_0_0: flow_7_2_0_0 - 1000 edge_7_2_0_0 <= 0
 inactive_no_flow_7_3_0_0: flow_7_3_0_0 - 1000 edge_7_3_0_0 <= 0
 inactive_no_flow_7_4_0_0: flow_7_4_0_0 - 1000 edge_7_4_0_0 <= 0
 inactive_no_flow_7_5_0_0: flow_7_5_0_0 - 1000 edge_7_5_0_0 <= 0
 inactive_no_flow_7_6_0_0: flow_7_6_0_0 - 1000 edge_7_6_0_0 <= 0
 inactive_no_flow_7_8_0_0: flow_7_8_0_0 - 1000 edge_7_8_0_0 <= 0
 inactive_no_flow_7_9_0_0: flow_7_9_0_0 - 1000 edge_7_9_0_0 <= 0
 inactive_no_flow_7_10_0_0: flow_7_10_0_0 - 1000 edge_7_10_0_0 <= 0
 inactive_no_flow_7_11_0_0: flow_7_11_0_0 - 1000 edge_7_11_0_0 <= 0
 inactive_no_flow_7_12_0_0: flow_7_12_0_0 - 1000 edge_7_12_0_0 <= 0
 inactive_no_flow_7_13_0_0: flow_7_13_0_0 - 1000 edge_7_13_0_0 <= 0
 inactive_no_flow_7_15_0_0: flow_7_15_0_0 - 1000 edge_7_15_0_0 <= 0
 inactive_no_flow_7_16_0_0: flow_7_16_0_0 - 1000 edge_7_16_0_0 <= 0
 inactive_no_flow_7_18_0_0: flow_7_18_0_0 - 1000 edge_7_18_0_0 <= 0
 inactive_no_flow_7_19_0_0: flow_7_19_0_0 - 1000 edge_7_19_0_0 <= 0
 inactive_no_flow_7_20_0_0: flow_7_20_0_0 - 1000 edge_7_20_0_0 <= 0
 inactive_no_flow_7_21_0_0: flow_7_21_0_0 - 1000 edge_7_21_0_0 <= 0
 inactive_no_flow_8_9_0_0: flow_8_9_0_0 - 1000 edge_8_9_0_0 <= 0
 inactive_no_flow_9_2_0_0: flow_9_2_0_0 - 1000 edge_9_2_0_0 <= 0
 inactive_no_flow_9_3_0_0: flow_9_3_0_0 - 1000 edge_9_3_0_0 <= 0
 inactive_no_flow_9_5_0_0: flow_9_5_0_0 - 1000 edge_9_5_0_0 <= 0
 inactive_no_flow_9_6_0_0: flow_9_6_0_0 - 1000 edge_9_6_0_0 <= 0
 inactive_no_flow_9_7_0_0: flow_9_7_0_0 - 1000 edge_9_7_0_0 <= 0
 inactive_no_flow_9_8_0_0: flow_9_8_0_0 - 1000 edge_9_8_0_0 <= 0
 inactive_no_flow_9_10_0_0: flow_9_10_0_0 - 1000 edge_9_10_0_0 <= 0
 inactive_no_flow_9_11_0_0: flow_9_11_0_0 - 1000 edge_9_11_0_0 <= 0
 inactive_no_flow_9_12_0_0: flow_9_12_0_0 - 1000 edge_9_12_0_0 <= 0
 inactive_no_flow_9_13_0_0: flow_9_13_0_0 - 1000 edge_9_13_0_0 <= 0
 inactive_no_flow_9_15_0_0: flow_9_15_0_0 - 1000 edge_9_15_0_0 <= 0
 inactive_no_flow_9_16_0_0: flow_9_16_0_0 - 1000 edge_9_16_0_0 <= 0
 inactive_no_flow_9_17_0_0: flow_9_17_0_0 - 1000 edge_9_17_0_0 <= 0
 inactive_no_flow_9_18_0_0: flow_9_18_0_0 - 1000 edge_9_18_0_0 <= 0
 inactive_no_flow_9_19_0_0: flow_9_19_0_0 - 1000 edge_9_19_0_0 <= 0
 inactive_no_flow_9_21_0_0: flow_9_21_0_0 - 1000 edge_9_21_0_0 <= 0
 inactive_no_flow_10_2_0_0: flow_10_2_0_0 - 1000 edge_10_2_0_0 <= 0
 inactive_no_flow_10_3_0_0: flow_10_3_0_0 - 1000 edge_10_3_0_0 <= 0
 inactive_no_flow_10_5_0_0: flow_10_5_0_0 - 1000 edge_10_5_0_0 <= 0
 inactive_no_flow_10_6_0_0: flow_10_6_0_0 - 1000 edge_10_6_0_0 <= 0
 inactive_no_flow_10_7_0_0: flow_10_7_0_0 - 1000 edge_10_7_0_0 <= 0
 inactive_no_flow_10_8_0_0: flow_10_8_0_0 - 1000 edge_10_8_0_0 <= 0
 inactive_no_flow_10_9_0_0: flow_10_9_0_0 - 1000 edge_10_9_0_0 <= 0
 inactive_no_flow_10_11_0_0: flow_10_11_0_0 - 1000 edge_10_11_0_0 <= 0
 inactive_no_flow_10_12_0_0: flow_10_12_0_0 - 1000 edge_10_12_0_0 <= 0
 inactive_no_flow_10_13_0_0: flow_10_13_0_0 - 1000 edge_10_13_0_0 <= 0
 inactive_no_flow_10_15_0_0: flow_10_15_0_0 - 1000 edge_10_15_0_0 <= 0
 inactive_no_flow_10_16_0_0: flow_10_16_0_0 - 1000 edge_10_16_0_0 <= 0
 inactive_no_flow_10_17_0_0: flow_10_17_0_0 - 1000 edge_10_17_0_0 <= 0
 inactive_no_flow_10_18_0_0: flow_10_18_0_0 - 1000 edge_10_18_0_0 <= 0
 inactive_no_flow_10_19_0_0: flow_10_19_0_0 - 1000 edge_10_19_0_0 <= 0
 inactive_no_flow_10_20_0_0: flow_10_20_0_0 - 1000 edge_10_20_0_0 <= 0
 inactive_no_flow_10_21_0_0: flow_10_21_0_0 - 1000 edge_10_21_0_0 <= 0
 inactive_no_flow_11_2_0_0: flow_11_2_0_0 - 1000 edge_11_2_0_0 <= 0
 inactive_no_flow_11_3_0_0: flow_11_3_0_0 - 1000 edge_11_3_0_0 <= 0
 inactive_no_flow_11_5_0_0: flow_11_5_0_0 - 1000 edge_11_5_0_0 <= 0
 inactive_no_flow_11_6_0_0: flow_11_6_0_0 - 1000 edge_11_6_0_0 <= 0
 inactive_no_flow_11_7_0_0: flow_11_7_0_0 - 1000 edge_11_7_0_0 <= 0
 inactive_no_flow_11_8_0_0: flow_11_8_0_0 - 1000 edge_11_8_0_0 <= 0
 inactive_no_flow_11_9_0_0: flow_11_9_0_0 - 1000 edge_11_9_0_0 <= 0
 inactive_no_flow_11_10_0_0: flow_11_10_0_0 - 1000 edge_11_10_0_0 <= 0
 inactive_no_flow_11_12_0_0: flow_11_12_0_0 - 1000 edge_11_12_0_0 <= 0
 inactive_no_flow_11_13_0_0: flow_11_13_0_0 - 1000 edge_11_13_0_0 <= 0
 inactive_no_flow_11_15_0_0: flow_11_15_0_0 - 1000 edge_11_15_0_0 <= 0
 inactive_no_flow_11_16_0_0: flow_11_16_0_0 - 1000 edge_11_16_0_0 <= 0
 inactive_no_flow_11_17_0_0: flow_11_17_0_0 - 1000 edge_11_17_0_0 <= 0
 inactive_no_flow_11_18_0_0: flow_11_18_0_0 - 1000 edge_11_18_0_0 <= 0
 inactive_no_flow_11_19_0_0: flow_11_19_0_0 - 1000 edge_11_19_0_0 <= 0
 inactive_no_flow_11_20_0_0: flow_11_20_0_0 - 1000 edge_11_20_0_0 <= 0
 inactive_no_flow_11_21_0_0: flow_11_21_0_0 - 1000 edge_11_21_0_0 <= 0
 inactive_no_flow_12_11_0_0: flow_12_11_0_0 - 1000 edge_12_11_0_0 <= 0
 inactive_no_flow_13_2_0_0: flow_13_2_0_0 - 1000 edge_13_2_0_0 <= 0
 inactive_no_flow_13_3_0_0: flow_13_3_0_0 - 1000 edge_13_3_0_0 <= 0
 inactive_no_flow_13_5_0_0: flow_13_5_0_0 - 1000 edge_13_5_0_0 <= 0
 inactive_no_flow_13_6_0_0: flow_13_6_0_0 - 1000 edge_13_6_0_0 <= 0
 inactive_no_flow_13_10_0_0: flow_13_10_0_0 - 1000 edge_13_10_0_0 <= 0
 inactive_no_flow_13_11_0_0: flow_13_11_0_0 - 1000 edge_13_11_0_0 <= 0
 inactive_no_flow_13_12_0_0: flow_13_12_0_0 - 1000 edge_13_12_0_0 <= 0
 inactive_no_flow_13_15_0_0: flow_13_15_0_0 - 1000 edge_13_15_0_0 <= 0
 inactive_no_flow_13_16_0_0: flow_13_16_0_0 - 1000 edge_13_16_0_0 <= 0
 inactive_no_flow_13_17_0_0: flow_13_17_0_0 - 1000 edge_13_17_0_0 <= 0
 inactive_no_flow_13_18_0_0: flow_13_18_0_0 - 1000 edge_13_18_0_0 <= 0
 inactive_no_flow_13_19_0_0: flow_13_19_0_0 - 1000 edge_13_19_0_0 <= 0
 inactive_no_flow_13_20_0_0: flow_13_20_0_0 - 1000 edge_13_20_0_0 <= 0
 inactive_no_flow_13_21_0_0: flow_13_21_0_0 - 1000 edge_13_21_0_0 <= 0
 inactive_no_flow_15_13_0_0: flow_15_13_0_0 - 1000 edge_15_13_0_0 <= 0
 inactive_no_flow_15_16_0_0: flow_15_16_0_0 - 1000 edge_15_16_0_0 <= 0
 inactive_no_flow_16_5_0_0: flow_16_5_0_0 - 1000 edge_16_5_0_0 <= 0
 inactive_no_flow_16_12_0_0: flow_16_12_0_0 - 1000 edge_16_12_0_0 <= 0
 inactive_no_flow_16_13_0_0: flow_16_13_0_0 - 1000 edge_16_13_0_0 <= 0
 inactive_no_flow_16_15_0_0: flow_16_15_0_0 - 1000 edge_16_15_0_0 <= 0
 inactive_no_flow_16_17_0_0: flow_16_17_0_0 - 1000 edge_16_17_0_0 <= 0
 inactive_no_flow_16_18_0_0: flow_16_18_0_0 - 1000 edge_16_18_0_0 <= 0
 inactive_no_flow_16_19_0_0: flow_16_19_0_0 - 1000 edge_16_19_0_0 <= 0
 inactive_no_flow_16_20_0_0: flow_16_20_0_0 - 1000 edge_16_20_0_0 <= 0
 inactive_no_flow_16_21_0_0: flow_16_21_0_0 - 1000 edge_16_21_0_0 <= 0
 inactive_no_flow_18_17_0_0: flow_18_17_0_0 - 1000 edge_18_17_0_0 <= 0
 inactive_no_flow_18_19_0_0: flow_18_19_0_0 - 1000 edge_18_19_0_0 <= 0
 inactive_no_flow_18_20_0_0: flow_18_20_0_0 - 1000 edge_18_20_0_0 <= 0
 inactive_no_flow_19_18_0_0: flow_19_18_0_0 - 1000 edge_19_18_0_0 <= 0
 inactive_no_flow_19_20_0_0: flow_19_20_0_0 - 1000 edge_19_20_0_0 <= 0
 inactive_no_flow_19_21_0_0: flow_19_21_0_0 - 1000 edge_19_21_0_0 <= 0
 inactive_no_flow_20_2_0_0: flow_20_2_0_0 - 1000 edge_20_2_0_0 <= 0
 inactive_no_flow_20_3_0_0: flow_20_3_0_0 - 1000 edge_20_3_0_0 <= 0
 inactive_no_flow_20_5_0_0: flow_20_5_0_0 - 1000 edge_20_5_0_0 <= 0
 inactive_no_flow_20_7_0_0: flow_20_7_0_0 - 1000 edge_20_7_0_0 <= 0
 inactive_no_flow_20_8_0_0: flow_20_8_0_0 - 1000 edge_20_8_0_0 <= 0
 inactive_no_flow_20_9_0_0: flow_20_9_0_0 - 1000 edge_20_9_0_0 <= 0
 inactive_no_flow_20_10_0_0: flow_20_10_0_0 - 1000 edge_20_10_0_0 <= 0
 inactive_no_flow_20_11_0_0: flow_20_11_0_0 - 1000 edge_20_11_0_0 <= 0
 inactive_no_flow_20_12_0_0: flow_20_12_0_0 - 1000 edge_20_12_0_0 <= 0
 inactive_no_flow_20_13_0_0: flow_20_13_0_0 - 1000 edge_20_13_0_0 <= 0
 inactive_no_flow_20_15_0_0: flow_20_15_0_0 - 1000 edge_20_15_0_0 <= 0
 inactive_no_flow_20_16_0_0: flow_20_16_0_0 - 1000 edge_20_16_0_0 <= 0
 inactive_no_flow_20_17_0_0: flow_20_17_0_0 - 1000 edge_20_17_0_0 <= 0
 inactive_no_flow_20_18_0_0: flow_20_18_0_0 - 1000 edge_20_18_0_0 <= 0
 inactive_no_flow_20_19_0_0: flow_20_19_0_0 - 1000 edge_20_19_0_0 <= 0
 inactive_no_flow_20_21_0_0: flow_20_21_0_0 - 1000 edge_20_21_0_0 <= 0
 inactive_no_flow_21_19_0_0: flow_21_19_0_0 - 1000 edge_21_19_0_0 <= 0
Bounds
Binaries
 edge_0_2_0_0 edge_0_3_0_0 edge_0_5_0_0 edge_0_7_0_0 edge_0_9_0_0
 edge_0_10_0_0 edge_0_11_0_0 edge_0_20_0_0 edge_2_3_0_0 edge_2_5_0_0
 edge_2_7_0_0 edge_2_8_0_0 edge_2_9_0_0 edge_2_10_0_0 edge_2_11_0_0
 edge_3_2_0_0 edge_3_5_0_0 edge_3_7_0_0 edge_3_8_0_0 edge_3_9_0_0
 edge_3_10_0_0 edge_3_11_0_0 edge_3_12_0_0 edge_3_13_0_0 edge_3_15_0_0
 edge_3_16_0_0 edge_3_17_0_0 edge_3_18_0_0 edge_3_20_0_0 edge_3_21_0_0
 edge_4_2_0_0 edge_4_3_0_0 edge_4_7_0_0 edge_4_8_0_0 edge_4_9_0_0
 edge_4_10_0_0 edge_5_2_0_0 edge_5_3_0_0 edge_5_4_0_0 edge_5_6_0_0
 edge_5_7_0_0 edge_5_8_0_0 edge_5_9_0_0 edge_5_10_0_0 edge_5_11_0_0
 edge_5_12_0_0 edge_5_13_0_0 edge_5_15_0_0 edge_5_16_0_0 edge_5_17_0_0
 edge_5_18_0_0 edge_5_19_0_0 edge_5_20_0_0 edge_5_21_0_0 edge_6_8_0_0
 edge_7_2_0_0 edge_7_3_0_0 edge_7_4_0_0 edge_7_5_0_0 edge_7_6_0_0
 edge_7_8_0_0 edge_7_9_0_0 edge_7_10_0_0 edge_7_11_0_0 edge_7_12_0_0
 edge_7_13_0_0 edge_7_15_0_0 edge_7_16_0_0 edge_7_18_0_0 edge_7_19_0_0
 edge_7_20_0_0 edge_7_21_0_0 edge_8_9_0_0 edge_9_2_0_0 edge_9_3_0_0
 edge_9_5_0_0 edge_9_6_0_0 edge_9_7_0_0 edge_9_8_0_0 edge_9_10_0_0
 edge_9_11_0_0 edge_9_12_0_0 edge_9_13_0_0 edge_9_15_0_0 edge_9_16_0_0
 edge_9_17_0_0 edge_9_18_0_0 edge_9_19_0_0 edge_9_21_0_0 edge_10_2_0_0
 edge_10_3_0_0 edge_10_5_0_0 edge_10_6_0_0 edge_10_7_0_0 edge_10_8_0_0
 edge_10_9_0_0 edge_10_11_0_0 edge_10_12_0_0 edge_10_13_0_0 edge_10_15_0_0
 edge_10_16_0_0 edge_10_17_0_0 edge_10_18_0_0 edge_10_19_0_0 edge_10_20_0_0
 edge_10_21_0_0 edge_11_2_0_0 edge_11_3_0_0 edge_11_5_0_0 edge_11_6_0_0
 edge_11_7_0_0 edge_11_8_0_0 edge_11_9_0_0 edge_11_10_0_0 edge_11_12_0_0
 edge_11_13_0_0 edge_11_15_0_0 edge_11_16_0_0 edge_11_17_0_0 edge_11_18_0_0
 edge_11_19_0_0 edge_11_20_0_0 edge_11_21_0_0 edge_12_11_0_0 edge_13_2_0_0
 edge_13_3_0_0 edge_13_5_0_0 edge_13_6_0_0 edge_13_10_0_0 edge_13_11_0_0
 edge_13_12_0_0 edge_13_15_0_0 edge_13_16_0_0 edge_13_17_0_0 edge_13_18_0_0
 edge_13_19_0_0 edge_13_20_0_0 edge_13_21_0_0 edge_15_13_0_0 edge_15_16_0_0
 edge_16_5_0_0 edge_16_12_0_0 edge_16_13_0_0 edge_16_15_0_0 edge_16_17_0_0
 edge_16_18_0_0 edge_16_19_0_0 edge_16_20_0_0 edge_16_21_0_0 edge_18_17_0_0
 edge_18_19_0_0 edge_18_20_0_0 edge_19_18_0_0 edge_19_20_0_0 edge_19_21_0_0
 edge_20_2_0_0 edge_20_3_0_0 edge_20_5_0_0 edge_20_7_0_0 edge_20_8_0_0
 edge_20_9_0_0 edge_20_10_0_0 edge_20_11_0_0 edge_20_12_0_0 edge_20_13_0_0
 edge_20_15_0_0 edge_20_16_0_0 edge_20_17_0_0 edge_20_18_0_0 edge_20_19_0_0
 edge_20_21_0_0 edge_21_19_0_0
End
